p cnf 10 20
-5 8 -4 0
-1 4 -5 0
1 4 -8 0
7 10 5 0
2 -3 7 0
-9 5 1 0
-1 -8 -10 0
-6 1 -3 0
7 -6 10 0
8 -3 -4 0
9 4 10 0
-3 -10 4 0
2 10 1 0
7 -8 -10 0
4 -10 -1 0
-10 7 3 0
-1 6 9 0
3 6 -9 0
-2 8 -9 0
6 7 -2 0
